p cnf 430 1488
-191 -82 0
-191 -118 0
-191 17 0
-191 164 0
-191 55 0
191 82 118 -17 -164 -55 0
-192 160 0
-192 173 0
-192 29 0
-192 -144 0
-192 -96 0
192 -160 -173 -29 144 96 0
-193 -65 0
-193 53 0
-193 10 0
-193 42 0
-193 148 0
193 65 -53 -10 -42 -148 0
-194 -92 0
-194 -169 0
-194 88 0
-194 -125 0
-194 -182 0
194 92 169 -88 125 182 0
-195 141 0
-195 -107 0
-195 67 0
-195 122 0
-195 -144 0
195 -141 107 -67 -122 144 0
191 192 193 194 195 0
-196 -69 0
-196 101 0
-196 -37 0
-196 178 0
-196 7 0
196 69 -101 37 -178 -7 0
-197 -30 0
-197 -184 0
-197 150 0
-197 -127 0
-197 176 0
197 30 184 -150 127 -176 0
-198 47 0
-198 190 0
-198 -152 0
-198 45 0
-198 134 0
198 -47 -190 152 -45 -134 0
-199 45 0
-199 65 0
-199 11 0
-199 145 0
-199 111 0
199 -45 -65 -11 -145 -111 0
-200 153 0
-200 -184 0
-200 44 0
-200 -26 0
-200 131 0
200 -153 184 -44 26 -131 0
196 197 198 199 200 0
-201 -181 0
-201 152 0
-201 75 0
-201 -83 0
-201 -180 0
201 181 -152 -75 83 180 0
-202 -58 0
-202 -35 0
-202 159 0
-202 -95 0
-202 156 0
202 58 35 -159 95 -156 0
-203 188 0
-203 -98 0
-203 -158 0
-203 56 0
-203 -59 0
203 -188 98 158 -56 59 0
-204 -67 0
-204 -159 0
-204 -96 0
-204 -7 0
-204 -90 0
204 67 159 96 7 90 0
-205 165 0
-205 -85 0
-205 -20 0
-205 41 0
-205 120 0
205 -165 85 20 -41 -120 0
201 202 203 204 205 0
-206 -175 0
-206 -147 0
-206 -21 0
-206 101 0
-206 -67 0
206 175 147 21 -101 67 0
-207 143 0
-207 -105 0
-207 -63 0
-207 -41 0
-207 -10 0
207 -143 105 63 41 10 0
-208 -22 0
-208 153 0
-208 -65 0
-208 19 0
-208 -51 0
208 22 -153 65 -19 51 0
-209 29 0
-209 -57 0
-209 70 0
-209 62 0
-209 90 0
209 -29 57 -70 -62 -90 0
-210 22 0
-210 188 0
-210 35 0
-210 124 0
-210 122 0
210 -22 -188 -35 -124 -122 0
206 207 208 209 210 0
-211 22 0
-211 -130 0
-211 -81 0
-211 -5 0
-211 137 0
211 -22 130 81 5 -137 0
-212 -64 0
-212 -177 0
-212 187 0
-212 -94 0
-212 -169 0
212 64 177 -187 94 169 0
-213 -136 0
-213 107 0
-213 160 0
-213 -50 0
-213 -14 0
213 136 -107 -160 50 14 0
-214 -82 0
-214 146 0
-214 -95 0
-214 -131 0
-214 50 0
214 82 -146 95 131 -50 0
-215 -97 0
-215 -100 0
-215 -189 0
-215 -87 0
-215 11 0
215 97 100 189 87 -11 0
211 212 213 214 215 0
-216 77 0
-216 -110 0
-216 -175 0
-216 -7 0
-216 140 0
216 -77 110 175 7 -140 0
-217 44 0
-217 187 0
-217 172 0
-217 -129 0
-217 36 0
217 -44 -187 -172 129 -36 0
-218 -156 0
-218 -132 0
-218 13 0
-218 -190 0
-218 -152 0
218 156 132 -13 190 152 0
-219 56 0
-219 102 0
-219 -140 0
-219 -75 0
-219 -99 0
219 -56 -102 140 75 99 0
-220 27 0
-220 153 0
-220 -62 0
-220 178 0
-220 -152 0
220 -27 -153 62 -178 152 0
216 217 218 219 220 0
-221 -56 0
-221 -3 0
-221 -156 0
-221 47 0
-221 -151 0
221 56 3 156 -47 151 0
-222 -120 0
-222 -52 0
-222 2 0
-222 -74 0
-222 6 0
222 120 52 -2 74 -6 0
-223 186 0
-223 35 0
-223 57 0
-223 -182 0
-223 88 0
223 -186 -35 -57 182 -88 0
-224 24 0
-224 -41 0
-224 -82 0
-224 -108 0
-224 2 0
224 -24 41 82 108 -2 0
-225 -183 0
-225 -178 0
-225 -159 0
-225 154 0
-225 69 0
225 183 178 159 -154 -69 0
221 222 223 224 225 0
-226 187 0
-226 -32 0
-226 -74 0
-226 -37 0
-226 42 0
226 -187 32 74 37 -42 0
-227 -11 0
-227 -135 0
-227 -183 0
-227 96 0
-227 85 0
227 11 135 183 -96 -85 0
-228 -154 0
-228 143 0
-228 -67 0
-228 188 0
-228 48 0
228 154 -143 67 -188 -48 0
-229 -68 0
-229 -9 0
-229 110 0
-229 97 0
-229 -118 0
229 68 9 -110 -97 118 0
-230 66 0
-230 79 0
-230 90 0
-230 124 0
-230 -111 0
230 -66 -79 -90 -124 111 0
226 227 228 229 230 0
-231 -156 0
-231 103 0
-231 121 0
-231 77 0
-231 -43 0
231 156 -103 -121 -77 43 0
-232 -175 0
-232 184 0
-232 28 0
-232 139 0
-232 -23 0
232 175 -184 -28 -139 23 0
-233 -58 0
-233 11 0
-233 21 0
-233 -43 0
-233 114 0
233 58 -11 -21 43 -114 0
-234 190 0
-234 -163 0
-234 -9 0
-234 89 0
-234 -158 0
234 -190 163 9 -89 158 0
-235 83 0
-235 -183 0
-235 -77 0
-235 124 0
-235 -21 0
235 -83 183 77 -124 21 0
231 232 233 234 235 0
-236 -129 0
-236 61 0
-236 188 0
-236 41 0
-236 -160 0
236 129 -61 -188 -41 160 0
-237 -11 0
-237 71 0
-237 154 0
-237 -170 0
-237 -9 0
237 11 -71 -154 170 9 0
-238 43 0
-238 71 0
-238 3 0
-238 -139 0
-238 -152 0
238 -43 -71 -3 139 152 0
-239 17 0
-239 155 0
-239 -176 0
-239 -106 0
-239 142 0
239 -17 -155 176 106 -142 0
-240 154 0
-240 -115 0
-240 -22 0
-240 -107 0
-240 18 0
240 -154 115 22 107 -18 0
236 237 238 239 240 0
-241 -152 0
-241 -110 0
-241 -187 0
-241 -86 0
-241 91 0
241 152 110 187 86 -91 0
-242 7 0
-242 27 0
-242 96 0
-242 -115 0
-242 19 0
242 -7 -27 -96 115 -19 0
-243 161 0
-243 125 0
-243 -26 0
-243 -94 0
-243 28 0
243 -161 -125 26 94 -28 0
-244 23 0
-244 -110 0
-244 -96 0
-244 90 0
-244 -52 0
244 -23 110 96 -90 52 0
-245 179 0
-245 67 0
-245 -173 0
-245 129 0
-245 86 0
245 -179 -67 173 -129 -86 0
241 242 243 244 245 0
-246 117 0
-246 -123 0
-246 41 0
-246 -33 0
-246 55 0
246 -117 123 -41 33 -55 0
-247 -2 0
-247 135 0
-247 87 0
-247 153 0
-247 -60 0
247 2 -135 -87 -153 60 0
-248 -60 0
-248 -165 0
-248 106 0
-248 -5 0
-248 54 0
248 60 165 -106 5 -54 0
-249 101 0
-249 123 0
-249 81 0
-249 137 0
-249 30 0
249 -101 -123 -81 -137 -30 0
-250 -97 0
-250 177 0
-250 178 0
-250 151 0
-250 53 0
250 97 -177 -178 -151 -53 0
246 247 248 249 250 0
-251 15 0
-251 -136 0
-251 159 0
-251 12 0
-251 63 0
251 -15 136 -159 -12 -63 0
-252 -53 0
-252 -188 0
-252 86 0
-252 123 0
-252 141 0
252 53 188 -86 -123 -141 0
-253 -54 0
-253 166 0
-253 -190 0
-253 175 0
-253 -132 0
253 54 -166 190 -175 132 0
-254 170 0
-254 173 0
-254 -79 0
-254 -52 0
-254 19 0
254 -170 -173 79 52 -19 0
-255 174 0
-255 64 0
-255 138 0
-255 85 0
-255 36 0
255 -174 -64 -138 -85 -36 0
251 252 253 254 255 0
-256 139 0
-256 126 0
-256 -29 0
-256 -128 0
-256 119 0
256 -139 -126 29 128 -119 0
-257 -86 0
-257 -22 0
-257 76 0
-257 115 0
-257 -23 0
257 86 22 -76 -115 23 0
-258 69 0
-258 141 0
-258 178 0
-258 -148 0
-258 80 0
258 -69 -141 -178 148 -80 0
-259 90 0
-259 170 0
-259 -122 0
-259 180 0
-259 -61 0
259 -90 -170 122 -180 61 0
-260 -121 0
-260 -92 0
-260 -183 0
-260 -189 0
-260 -102 0
260 121 92 183 189 102 0
256 257 258 259 260 0
-261 161 0
-261 -47 0
-261 121 0
-261 -106 0
-261 129 0
261 -161 47 -121 106 -129 0
-262 -100 0
-262 -109 0
-262 174 0
-262 5 0
-262 143 0
262 100 109 -174 -5 -143 0
-263 -130 0
-263 -142 0
-263 -13 0
-263 -141 0
-263 71 0
263 130 142 13 141 -71 0
-264 -36 0
-264 -182 0
-264 -141 0
-264 -83 0
-264 61 0
264 36 182 141 83 -61 0
-265 20 0
-265 -116 0
-265 -83 0
-265 64 0
-265 36 0
265 -20 116 83 -64 -36 0
261 262 263 264 265 0
-266 -189 0
-266 116 0
-266 -105 0
-266 114 0
-266 127 0
266 189 -116 105 -114 -127 0
-267 9 0
-267 54 0
-267 -173 0
-267 -154 0
-267 73 0
267 -9 -54 173 154 -73 0
-268 -88 0
-268 38 0
-268 30 0
-268 -149 0
-268 -138 0
268 88 -38 -30 149 138 0
-269 -76 0
-269 111 0
-269 -83 0
-269 30 0
-269 39 0
269 76 -111 83 -30 -39 0
-270 -160 0
-270 -41 0
-270 80 0
-270 75 0
-270 -85 0
270 160 41 -80 -75 85 0
266 267 268 269 270 0
-271 -73 0
-271 160 0
-271 -20 0
-271 -33 0
-271 -107 0
271 73 -160 20 33 107 0
-272 4 0
-272 -29 0
-272 -86 0
-272 5 0
-272 -57 0
272 -4 29 86 -5 57 0
-273 -149 0
-273 -25 0
-273 97 0
-273 40 0
-273 179 0
273 149 25 -97 -40 -179 0
-274 188 0
-274 93 0
-274 -94 0
-274 60 0
-274 -184 0
274 -188 -93 94 -60 184 0
-275 35 0
-275 -19 0
-275 -100 0
-275 -44 0
-275 85 0
275 -35 19 100 44 -85 0
271 272 273 274 275 0
-276 -46 0
-276 165 0
-276 164 0
-276 179 0
-276 -181 0
276 46 -165 -164 -179 181 0
-277 174 0
-277 -181 0
-277 153 0
-277 173 0
-277 111 0
277 -174 181 -153 -173 -111 0
-278 -140 0
-278 175 0
-278 -59 0
-278 -50 0
-278 94 0
278 140 -175 59 50 -94 0
-279 46 0
-279 -80 0
-279 56 0
-279 34 0
-279 -7 0
279 -46 80 -56 -34 7 0
-280 -37 0
-280 -142 0
-280 135 0
-280 -184 0
-280 -83 0
280 37 142 -135 184 83 0
276 277 278 279 280 0
-281 48 0
-281 -80 0
-281 -55 0
-281 -147 0
-281 -146 0
281 -48 80 55 147 146 0
-282 -50 0
-282 -104 0
-282 -60 0
-282 -180 0
-282 22 0
282 50 104 60 180 -22 0
-283 -170 0
-283 173 0
-283 -181 0
-283 96 0
-283 53 0
283 170 -173 181 -96 -53 0
-284 32 0
-284 -51 0
-284 178 0
-284 -146 0
-284 -184 0
284 -32 51 -178 146 184 0
-285 35 0
-285 41 0
-285 184 0
-285 107 0
-285 -99 0
285 -35 -41 -184 -107 99 0
281 282 283 284 285 0
-286 -55 0
-286 -47 0
-286 -9 0
-286 148 0
-286 -30 0
286 55 47 9 -148 30 0
-287 107 0
-287 -85 0
-287 182 0
-287 128 0
-287 75 0
287 -107 85 -182 -128 -75 0
-288 144 0
-288 122 0
-288 174 0
-288 -11 0
-288 -86 0
288 -144 -122 -174 11 86 0
-289 74 0
-289 83 0
-289 -127 0
-289 100 0
-289 -113 0
289 -74 -83 127 -100 113 0
-290 -61 0
-290 93 0
-290 51 0
-290 33 0
-290 72 0
290 61 -93 -51 -33 -72 0
286 287 288 289 290 0
-291 47 0
-291 -89 0
-291 -155 0
-291 35 0
-291 -98 0
291 -47 89 155 -35 98 0
-292 71 0
-292 -92 0
-292 -138 0
-292 -147 0
-292 -116 0
292 -71 92 138 147 116 0
-293 -2 0
-293 145 0
-293 98 0
-293 42 0
-293 37 0
293 2 -145 -98 -42 -37 0
-294 4 0
-294 106 0
-294 -146 0
-294 -45 0
-294 27 0
294 -4 -106 146 45 -27 0
-295 11 0
-295 125 0
-295 15 0
-295 96 0
-295 10 0
295 -11 -125 -15 -96 -10 0
291 292 293 294 295 0
-296 62 0
-296 41 0
-296 -27 0
-296 -66 0
-296 -48 0
296 -62 -41 27 66 48 0
-297 -13 0
-297 91 0
-297 54 0
-297 32 0
-297 -188 0
297 13 -91 -54 -32 188 0
-298 -44 0
-298 -188 0
-298 129 0
-298 -160 0
-298 106 0
298 44 188 -129 160 -106 0
-299 183 0
-299 -144 0
-299 143 0
-299 -126 0
-299 -165 0
299 -183 144 -143 126 165 0
-300 -72 0
-300 165 0
-300 140 0
-300 154 0
-300 54 0
300 72 -165 -140 -154 -54 0
296 297 298 299 300 0
-301 188 0
-301 -151 0
-301 -57 0
-301 126 0
-301 -66 0
301 -188 151 57 -126 66 0
-302 -20 0
-302 27 0
-302 26 0
-302 -150 0
-302 69 0
302 20 -27 -26 150 -69 0
-303 158 0
-303 -172 0
-303 178 0
-303 -33 0
-303 76 0
303 -158 172 -178 33 -76 0
-304 -103 0
-304 -91 0
-304 109 0
-304 87 0
-304 -133 0
304 103 91 -109 -87 133 0
-305 87 0
-305 -60 0
-305 -23 0
-305 -91 0
-305 84 0
305 -87 60 23 91 -84 0
301 302 303 304 305 0
-306 -111 0
-306 -66 0
-306 -172 0
-306 -108 0
-306 -189 0
306 111 66 172 108 189 0
-307 178 0
-307 46 0
-307 52 0
-307 -19 0
-307 164 0
307 -178 -46 -52 19 -164 0
-308 153 0
-308 -123 0
-308 -104 0
-308 -32 0
-308 -59 0
308 -153 123 104 32 59 0
-309 136 0
-309 167 0
-309 104 0
-309 117 0
-309 8 0
309 -136 -167 -104 -117 -8 0
-310 53 0
-310 107 0
-310 -62 0
-310 136 0
-310 142 0
310 -53 -107 62 -136 -142 0
306 307 308 309 310 0
-311 164 0
-311 22 0
-311 79 0
-311 65 0
-311 -131 0
311 -164 -22 -79 -65 131 0
-312 59 0
-312 151 0
-312 83 0
-312 -153 0
-312 -187 0
312 -59 -151 -83 153 187 0
-313 -92 0
-313 190 0
-313 165 0
-313 -184 0
-313 -47 0
313 92 -190 -165 184 47 0
-314 -124 0
-314 -145 0
-314 38 0
-314 -173 0
-314 -85 0
314 124 145 -38 173 85 0
-315 149 0
-315 68 0
-315 -21 0
-315 -59 0
-315 94 0
315 -149 -68 21 59 -94 0
311 312 313 314 315 0
-316 97 0
-316 -179 0
-316 16 0
-316 7 0
-316 -24 0
316 -97 179 -16 -7 24 0
-317 -119 0
-317 -71 0
-317 20 0
-317 -49 0
-317 -48 0
317 119 71 -20 49 48 0
-318 150 0
-318 -74 0
-318 59 0
-318 -28 0
-318 -190 0
318 -150 74 -59 28 190 0
-319 -117 0
-319 2 0
-319 63 0
-319 -103 0
-319 -79 0
319 117 -2 -63 103 79 0
-320 -140 0
-320 -54 0
-320 100 0
-320 162 0
-320 4 0
320 140 54 -100 -162 -4 0
316 317 318 319 320 0
-321 31 0
-321 -119 0
-321 -106 0
-321 -113 0
-321 -125 0
321 -31 119 106 113 125 0
-322 -47 0
-322 -130 0
-322 -163 0
-322 -91 0
-322 -142 0
322 47 130 163 91 142 0
-323 63 0
-323 178 0
-323 116 0
-323 -105 0
-323 68 0
323 -63 -178 -116 105 -68 0
-324 -143 0
-324 57 0
-324 102 0
-324 42 0
-324 6 0
324 143 -57 -102 -42 -6 0
-325 -118 0
-325 180 0
-325 139 0
-325 26 0
-325 -129 0
325 118 -180 -139 -26 129 0
321 322 323 324 325 0
-326 -66 0
-326 176 0
-326 89 0
-326 64 0
-326 39 0
326 66 -176 -89 -64 -39 0
-327 160 0
-327 59 0
-327 -4 0
-327 127 0
-327 -98 0
327 -160 -59 4 -127 98 0
-328 -178 0
-328 20 0
-328 57 0
-328 131 0
-328 143 0
328 178 -20 -57 -131 -143 0
-329 -153 0
-329 10 0
-329 44 0
-329 -172 0
-329 -181 0
329 153 -10 -44 172 181 0
-330 47 0
-330 37 0
-330 -136 0
-330 72 0
-330 17 0
330 -47 -37 136 -72 -17 0
326 327 328 329 330 0
-331 186 0
-331 9 0
-331 -83 0
-331 -169 0
-331 50 0
331 -186 -9 83 169 -50 0
-332 -30 0
-332 127 0
-332 148 0
-332 -136 0
-332 -113 0
332 30 -127 -148 136 113 0
-333 81 0
-333 83 0
-333 112 0
-333 110 0
-333 -180 0
333 -81 -83 -112 -110 180 0
-334 9 0
-334 47 0
-334 -72 0
-334 -164 0
-334 -117 0
334 -9 -47 72 164 117 0
-335 -92 0
-335 -116 0
-335 -102 0
-335 45 0
-335 -187 0
335 92 116 102 -45 187 0
331 332 333 334 335 0
-336 13 0
-336 29 0
-336 -118 0
-336 149 0
-336 -150 0
336 -13 -29 118 -149 150 0
-337 -20 0
-337 -13 0
-337 -31 0
-337 -115 0
-337 58 0
337 20 13 31 115 -58 0
-338 -104 0
-338 -190 0
-338 -69 0
-338 -96 0
-338 186 0
338 104 190 69 96 -186 0
-339 -175 0
-339 27 0
-339 -116 0
-339 -20 0
-339 -28 0
339 175 -27 116 20 28 0
-340 69 0
-340 112 0
-340 -8 0
-340 34 0
-340 -15 0
340 -69 -112 8 -34 15 0
336 337 338 339 340 0
-341 170 0
-341 189 0
-341 64 0
-341 157 0
-341 27 0
341 -170 -189 -64 -157 -27 0
-342 -17 0
-342 -103 0
-342 -23 0
-342 178 0
-342 66 0
342 17 103 23 -178 -66 0
-343 42 0
-343 -38 0
-343 70 0
-343 79 0
-343 73 0
343 -42 38 -70 -79 -73 0
-344 133 0
-344 -26 0
-344 -189 0
-344 130 0
-344 -142 0
344 -133 26 189 -130 142 0
-345 108 0
-345 -135 0
-345 178 0
-345 -25 0
-345 -71 0
345 -108 135 -178 25 71 0
341 342 343 344 345 0
-346 -15 0
-346 92 0
-346 34 0
-346 -131 0
-346 75 0
346 15 -92 -34 131 -75 0
-347 -177 0
-347 -114 0
-347 75 0
-347 -156 0
-347 185 0
347 177 114 -75 156 -185 0
-348 37 0
-348 69 0
-348 112 0
-348 160 0
-348 127 0
348 -37 -69 -112 -160 -127 0
-349 189 0
-349 -54 0
-349 -83 0
-349 13 0
-349 11 0
349 -189 54 83 -13 -11 0
-350 165 0
-350 110 0
-350 29 0
-350 -90 0
-350 -189 0
350 -165 -110 -29 90 189 0
346 347 348 349 350 0
-351 -190 0
-351 -143 0
-351 -106 0
-351 -92 0
-351 -58 0
351 190 143 106 92 58 0
-352 -51 0
-352 56 0
-352 104 0
-352 86 0
-352 -68 0
352 51 -56 -104 -86 68 0
-353 152 0
-353 -133 0
-353 9 0
-353 -30 0
-353 -1 0
353 -152 133 -9 30 1 0
-354 81 0
-354 184 0
-354 -110 0
-354 -53 0
-354 -121 0
354 -81 -184 110 53 121 0
-355 5 0
-355 94 0
-355 -127 0
-355 171 0
-355 -21 0
355 -5 -94 127 -171 21 0
351 352 353 354 355 0
-356 7 0
-356 -20 0
-356 -45 0
-356 -126 0
-356 -132 0
356 -7 20 45 126 132 0
-357 -95 0
-357 57 0
-357 -8 0
-357 -116 0
-357 -2 0
357 95 -57 8 116 2 0
-358 75 0
-358 -40 0
-358 95 0
-358 -5 0
-358 -140 0
358 -75 40 -95 5 140 0
-359 -30 0
-359 67 0
-359 41 0
-359 -103 0
-359 180 0
359 30 -67 -41 103 -180 0
-360 -1 0
-360 105 0
-360 67 0
-360 90 0
-360 -91 0
360 1 -105 -67 -90 91 0
356 357 358 359 360 0
-361 16 0
-361 175 0
-361 93 0
-361 21 0
-361 -56 0
361 -16 -175 -93 -21 56 0
-362 92 0
-362 64 0
-362 -46 0
-362 112 0
-362 -4 0
362 -92 -64 46 -112 4 0
-363 152 0
-363 -11 0
-363 52 0
-363 -159 0
-363 19 0
363 -152 11 -52 159 -19 0
-364 145 0
-364 -141 0
-364 -113 0
-364 -66 0
-364 101 0
364 -145 141 113 66 -101 0
-365 25 0
-365 12 0
-365 -52 0
-365 44 0
-365 -153 0
365 -25 -12 52 -44 153 0
361 362 363 364 365 0
-366 143 0
-366 -87 0
-366 149 0
-366 -78 0
-366 -93 0
366 -143 87 -149 78 93 0
-367 -125 0
-367 -175 0
-367 63 0
-367 171 0
-367 -27 0
367 125 175 -63 -171 27 0
-368 156 0
-368 91 0
-368 93 0
-368 -24 0
-368 161 0
368 -156 -91 -93 24 -161 0
-369 -20 0
-369 179 0
-369 118 0
-369 -67 0
-369 -92 0
369 20 -179 -118 67 92 0
-370 11 0
-370 -134 0
-370 -85 0
-370 143 0
-370 163 0
370 -11 134 85 -143 -163 0
366 367 368 369 370 0
-371 -186 0
-371 25 0
-371 65 0
-371 149 0
-371 10 0
371 186 -25 -65 -149 -10 0
-372 67 0
-372 87 0
-372 -81 0
-372 -64 0
-372 134 0
372 -67 -87 81 64 -134 0
-373 -137 0
-373 -140 0
-373 -161 0
-373 -66 0
-373 -180 0
373 137 140 161 66 180 0
-374 98 0
-374 -17 0
-374 169 0
-374 41 0
-374 -77 0
374 -98 17 -169 -41 77 0
-375 126 0
-375 38 0
-375 179 0
-375 49 0
-375 91 0
375 -126 -38 -179 -49 -91 0
371 372 373 374 375 0
-376 -60 0
-376 88 0
-376 -20 0
-376 -145 0
-376 9 0
376 60 -88 20 145 -9 0
-377 78 0
-377 185 0
-377 -143 0
-377 -10 0
-377 168 0
377 -78 -185 143 10 -168 0
-378 171 0
-378 157 0
-378 97 0
-378 -53 0
-378 154 0
378 -171 -157 -97 53 -154 0
-379 95 0
-379 -74 0
-379 181 0
-379 -83 0
-379 133 0
379 -95 74 -181 83 -133 0
-380 -147 0
-380 -162 0
-380 20 0
-380 187 0
-380 -115 0
380 147 162 -20 -187 115 0
376 377 378 379 380 0
-381 152 0
-381 -182 0
-381 131 0
-381 66 0
-381 -35 0
381 -152 182 -131 -66 35 0
-382 -68 0
-382 -134 0
-382 54 0
-382 -26 0
-382 169 0
382 68 134 -54 26 -169 0
-383 -47 0
-383 -129 0
-383 -73 0
-383 148 0
-383 -8 0
383 47 129 73 -148 8 0
-384 -2 0
-384 -19 0
-384 -101 0
-384 -149 0
-384 -143 0
384 2 19 101 149 143 0
-385 181 0
-385 139 0
-385 -109 0
-385 91 0
-385 30 0
385 -181 -139 109 -91 -30 0
381 382 383 384 385 0
-386 -47 0
-386 97 0
-386 119 0
-386 -136 0
-386 -104 0
386 47 -97 -119 136 104 0
-387 -115 0
-387 -47 0
-387 -179 0
-387 -129 0
-387 125 0
387 115 47 179 129 -125 0
-388 -68 0
-388 74 0
-388 -131 0
-388 -24 0
-388 2 0
388 68 -74 131 24 -2 0
-389 156 0
-389 179 0
-389 -91 0
-389 -5 0
-389 -38 0
389 -156 -179 91 5 38 0
-390 37 0
-390 -64 0
-390 -10 0
-390 86 0
-390 -24 0
390 -37 64 10 -86 24 0
386 387 388 389 390 0
-391 -96 0
-391 169 0
-391 35 0
-391 -8 0
-391 -98 0
391 96 -169 -35 8 98 0
-392 -91 0
-392 -40 0
-392 65 0
-392 76 0
-392 -9 0
392 91 40 -65 -76 9 0
-393 -38 0
-393 64 0
-393 -83 0
-393 -178 0
-393 108 0
393 38 -64 83 178 -108 0
-394 -93 0
-394 44 0
-394 -94 0
-394 66 0
-394 153 0
394 93 -44 94 -66 -153 0
-395 -94 0
-395 -136 0
-395 -165 0
-395 166 0
-395 11 0
395 94 136 165 -166 -11 0
391 392 393 394 395 0
-396 -125 0
-396 -30 0
-396 92 0
-396 -39 0
-396 145 0
396 125 30 -92 39 -145 0
-397 122 0
-397 -87 0
-397 40 0
-397 175 0
-397 -88 0
397 -122 87 -40 -175 88 0
-398 -14 0
-398 134 0
-398 -176 0
-398 71 0
-398 -184 0
398 14 -134 176 -71 184 0
-399 186 0
-399 -108 0
-399 94 0
-399 14 0
-399 -107 0
399 -186 108 -94 -14 107 0
-400 102 0
-400 -24 0
-400 114 0
-400 69 0
-400 -177 0
400 -102 24 -114 -69 177 0
396 397 398 399 400 0
-401 169 0
-401 -54 0
-401 110 0
-401 141 0
-401 -55 0
401 -169 54 -110 -141 55 0
-402 121 0
-402 -174 0
-402 -125 0
-402 31 0
-402 24 0
402 -121 174 125 -31 -24 0
-403 -145 0
-403 -37 0
-403 -94 0
-403 -138 0
-403 -75 0
403 145 37 94 138 75 0
-404 122 0
-404 93 0
-404 105 0
-404 -71 0
-404 -113 0
404 -122 -93 -105 71 113 0
-405 187 0
-405 150 0
-405 163 0
-405 148 0
-405 185 0
405 -187 -150 -163 -148 -185 0
401 402 403 404 405 0
-406 -8 0
-406 60 0
-406 -21 0
-406 11 0
-406 145 0
406 8 -60 21 -11 -145 0
-407 48 0
-407 54 0
-407 104 0
-407 39 0
-407 -53 0
407 -48 -54 -104 -39 53 0
-408 -154 0
-408 -134 0
-408 94 0
-408 -157 0
-408 -89 0
408 154 134 -94 157 89 0
-409 18 0
-409 112 0
-409 38 0
-409 -136 0
-409 182 0
409 -18 -112 -38 136 -182 0
-410 -76 0
-410 4 0
-410 -55 0
-410 -174 0
-410 -156 0
410 76 -4 55 174 156 0
406 407 408 409 410 0
-411 40 0
-411 -51 0
-411 37 0
-411 -80 0
-411 86 0
411 -40 51 -37 80 -86 0
-412 -160 0
-412 -11 0
-412 88 0
-412 114 0
-412 -29 0
412 160 11 -88 -114 29 0
-413 40 0
-413 -174 0
-413 108 0
-413 -134 0
-413 54 0
413 -40 174 -108 134 -54 0
-414 -108 0
-414 4 0
-414 2 0
-414 132 0
-414 -53 0
414 108 -4 -2 -132 53 0
-415 -57 0
-415 97 0
-415 107 0
-415 105 0
-415 -138 0
415 57 -97 -107 -105 138 0
411 412 413 414 415 0
-416 33 0
-416 -184 0
-416 49 0
-416 -14 0
-416 170 0
416 -33 184 -49 14 -170 0
-417 188 0
-417 167 0
-417 -177 0
-417 25 0
-417 46 0
417 -188 -167 177 -25 -46 0
-418 127 0
-418 76 0
-418 89 0
-418 -88 0
-418 -138 0
418 -127 -76 -89 88 138 0
-419 -56 0
-419 32 0
-419 -140 0
-419 -136 0
-419 -43 0
419 56 -32 140 136 43 0
-420 -28 0
-420 -26 0
-420 -72 0
-420 23 0
-420 34 0
420 28 26 72 -23 -34 0
416 417 418 419 420 0
-421 -99 0
-421 115 0
-421 -15 0
-421 64 0
-421 -121 0
421 99 -115 15 -64 121 0
-422 -170 0
-422 118 0
-422 148 0
-422 -39 0
-422 74 0
422 170 -118 -148 39 -74 0
-423 82 0
-423 86 0
-423 118 0
-423 -183 0
-423 155 0
423 -82 -86 -118 183 -155 0
-424 108 0
-424 -47 0
-424 -60 0
-424 -105 0
-424 114 0
424 -108 47 60 105 -114 0
-425 98 0
-425 -37 0
-425 -133 0
-425 -34 0
-425 -159 0
425 -98 37 133 34 159 0
421 422 423 424 425 0
-426 123 0
-426 76 0
-426 132 0
-426 -116 0
-426 -100 0
426 -123 -76 -132 116 100 0
-427 10 0
-427 -5 0
-427 -152 0
-427 143 0
-427 63 0
427 -10 5 152 -143 -63 0
-428 57 0
-428 88 0
-428 -80 0
-428 -141 0
-428 -3 0
428 -57 -88 80 141 3 0
-429 -30 0
-429 -54 0
-429 127 0
-429 -36 0
-429 159 0
429 30 54 -127 36 -159 0
-430 116 0
-430 22 0
-430 31 0
-430 48 0
-430 -77 0
430 -116 -22 -31 -48 77 0
426 427 428 429 430 0
